sat
(
  (define-fun G () String
    "")
  (define-fun F () String
    "")
  (define-fun E () String
    "")
  (define-fun H () String
    "")
  (define-fun L () String
    "aa")
  (define-fun K () String
    "aa")
)
